p wcnf 101 50 51 
1 73 -52 0 
1 74 -43 0 
1 -94 34 0 
1 51 -77 0 
1 -99 101 0 
1 84 -30 0 
1 97 -93 0 
1 92 -63 0 
1 -48 80 0 
1 47 -83 0 
1 -25 11 0 
1 35 97 0 
1 80 32 0 
1 29 -48 0 
1 -60 95 0 
1 -49 -86 0 
1 6 37 0 
1 67 -57 0 
1 -13 -65 0 
1 -21 -23 0 
1 -84 -52 0 
1 -91 -46 0 
1 -61 63 0 
1 20 90 0 
1 -8 3 0 
1 40 -13 0 
1 -20 43 0 
1 19 92 0 
1 3 4 0 
1 -72 -73 0 
1 -12 -92 0 
1 1 -19 0 
1 5 45 0 
1 74 40 0 
1 27 -61 0 
1 -95 42 0 
1 8 47 0 
1 -47 -31 0 
1 -87 73 0 
1 77 -63 0 
1 23 -83 0 
1 6 12 0 
1 14 -66 0 
1 -97 -58 0 
1 -90 -56 0 
1 26 98 0 
1 -76 -26 0 
1 85 92 0 
1 -23 -34 0 
1 23 19 0 
